output ["x = ",showDzn(x),";\n","pos_R0_0_0_t0 = ",showDzn(pos_R0_0_0_t0),";\n","pos_R0_0_1_t1 = ",showDzn(pos_R0_0_1_t1),";\n","pos_R0_1_1_t2 = ",showDzn(pos_R0_1_1_t2),";\n","pos_R1_1_1_t0 = ",showDzn(pos_R1_1_1_t0),";\n","pos_R1_1_0_t1 = ",showDzn(pos_R1_1_0_t1),";\n","pos_R1_0_0_t2 = ",showDzn(pos_R1_0_0_t2),";\n"];
bool: pos_R1_0_0_t2 = true;
bool: pos_R1_1_0_t1 = true;
bool: pos_R1_1_1_t0 = true;
bool: pos_R0_1_1_t2 = true;
bool: pos_R0_0_1_t1 = true;
bool: pos_R0_0_0_t0 = true;
array [1..3] of bool: x;
